p tw 253 14521 122 
1 123 
1 124 
1 125 
1 126 
1 127 
1 128 
1 129 
1 130 
1 131 
1 132 
1 133 
2 122 
2 134 
2 135 
2 136 
2 137 
2 138 
2 139 
2 140 
2 141 
2 142 
2 143 
2 144 
3 122 
3 145 
3 146 
3 147 
3 148 
3 149 
3 150 
3 151 
3 152 
3 153 
3 154 
3 155 
4 122 
4 156 
4 157 
4 158 
4 159 
4 160 
4 161 
4 162 
4 163 
4 164 
4 165 
4 166 
5 122 
5 167 
5 168 
5 169 
5 170 
5 171 
5 172 
5 173 
5 174 
5 175 
5 176 
5 177 
6 122 
6 178 
6 179 
6 180 
6 181 
6 182 
6 183 
6 184 
6 185 
6 186 
6 187 
6 188 
7 122 
7 189 
7 190 
7 191 
7 192 
7 193 
7 194 
7 195 
7 196 
7 197 
7 198 
7 199 
8 122 
8 200 
8 201 
8 202 
8 203 
8 204 
8 205 
8 206 
8 207 
8 208 
8 209 
8 210 
9 122 
9 211 
9 212 
9 213 
9 214 
9 215 
9 216 
9 217 
9 218 
9 219 
9 220 
9 221 
10 122 
10 222 
10 223 
10 224 
10 225 
10 226 
10 227 
10 228 
10 229 
10 230 
10 231 
10 232 
11 122 
11 233 
11 234 
11 235 
11 236 
11 237 
11 238 
11 239 
11 240 
11 241 
11 242 
11 243 
12 123 
12 134 
12 145 
12 156 
12 167 
12 178 
12 189 
12 200 
12 211 
12 222 
12 233 
12 244 
13 124 
13 135 
13 146 
13 157 
13 168 
13 179 
13 190 
13 201 
13 212 
13 223 
13 234 
13 244 
14 125 
14 136 
14 147 
14 158 
14 169 
14 180 
14 191 
14 202 
14 213 
14 224 
14 235 
14 244 
15 126 
15 137 
15 148 
15 159 
15 170 
15 181 
15 192 
15 203 
15 214 
15 225 
15 236 
15 244 
16 127 
16 138 
16 149 
16 160 
16 171 
16 182 
16 193 
16 204 
16 215 
16 226 
16 237 
16 244 
17 128 
17 139 
17 150 
17 161 
17 172 
17 183 
17 194 
17 205 
17 216 
17 227 
17 238 
17 244 
18 129 
18 140 
18 151 
18 162 
18 173 
18 184 
18 195 
18 206 
18 217 
18 228 
18 239 
18 244 
19 130 
19 141 
19 152 
19 163 
19 174 
19 185 
19 196 
19 207 
19 218 
19 229 
19 240 
19 244 
20 131 
20 142 
20 153 
20 164 
20 175 
20 186 
20 197 
20 208 
20 219 
20 230 
20 241 
20 244 
21 132 
21 143 
21 154 
21 165 
21 176 
21 187 
21 198 
21 209 
21 220 
21 231 
21 242 
21 244 
22 133 
22 144 
22 155 
22 166 
22 177 
22 188 
22 199 
22 210 
22 221 
22 232 
22 243 
22 244 
23 123 
23 144 
23 146 
23 158 
23 170 
23 182 
23 194 
23 206 
23 218 
23 230 
23 242 
23 245 
24 133 
24 135 
24 153 
24 160 
24 173 
24 187 
24 189 
24 205 
24 214 
24 224 
24 240 
24 245 
25 124 
25 142 
25 147 
25 165 
25 172 
25 185 
25 199 
25 200 
25 217 
25 226 
25 236 
25 245 
26 125 
26 138 
26 154 
26 159 
26 177 
26 184 
26 197 
26 201 
26 211 
26 229 
26 238 
26 245 
27 126 
27 140 
27 150 
27 166 
27 171 
27 179 
27 196 
27 209 
27 213 
27 222 
27 241 
27 245 
28 127 
28 143 
28 152 
28 162 
28 168 
28 183 
28 191 
28 208 
28 221 
28 225 
28 233 
28 245 
29 128 
29 134 
29 155 
29 164 
29 174 
29 180 
29 195 
29 203 
29 220 
29 223 
29 237 
29 245 
30 129 
30 139 
30 145 
30 157 
30 176 
30 186 
30 192 
30 207 
30 215 
30 232 
30 235 
30 245 
31 130 
31 137 
31 151 
31 156 
31 169 
31 188 
31 198 
31 204 
31 219 
31 227 
31 234 
31 245 
32 131 
32 136 
32 149 
32 163 
32 167 
32 181 
32 190 
32 210 
32 216 
32 231 
32 239 
32 245 
33 132 
33 141 
33 148 
33 161 
33 175 
33 178 
33 193 
33 202 
33 212 
33 228 
33 243 
33 245 
34 123 
34 141 
34 153 
34 165 
34 177 
34 179 
34 191 
34 203 
34 215 
34 227 
34 239 
34 246 
35 132 
35 135 
35 151 
35 166 
35 174 
35 181 
35 194 
35 208 
35 211 
35 226 
35 235 
35 246 
36 133 
36 137 
36 147 
36 163 
36 168 
36 186 
36 193 
36 206 
36 220 
36 222 
36 238 
36 246 
37 124 
37 140 
37 149 
37 159 
37 175 
37 180 
37 198 
37 205 
37 218 
37 232 
37 233 
37 246 
38 125 
38 134 
38 152 
38 161 
38 171 
38 187 
38 192 
38 210 
38 217 
38 230 
38 234 
38 246 
39 126 
39 136 
39 145 
39 164 
39 173 
39 183 
39 199 
39 204 
39 212 
39 229 
39 242 
39 246 
40 127 
40 144 
40 148 
40 156 
40 176 
40 185 
40 195 
40 201 
40 216 
40 224 
40 241 
40 246 
41 128 
41 143 
41 146 
41 160 
41 167 
41 188 
41 197 
41 207 
41 213 
41 228 
41 236 
41 246 
42 129 
42 138 
42 155 
42 158 
42 172 
42 178 
42 190 
42 209 
42 219 
42 225 
42 240 
42 246 
43 130 
43 142 
43 150 
43 157 
43 170 
43 184 
43 189 
43 202 
43 221 
43 231 
43 237 
43 246 
44 131 
44 139 
44 154 
44 162 
44 169 
44 182 
44 196 
44 200 
44 214 
44 223 
44 243 
44 246 
45 123 
45 139 
45 151 
45 163 
45 175 
45 187 
45 199 
45 201 
45 213 
45 225 
45 237 
45 247 
46 131 
46 135 
46 155 
46 161 
46 176 
46 184 
46 191 
46 204 
46 218 
46 222 
46 236 
46 247 
47 132 
47 138 
47 147 
47 157 
47 173 
47 188 
47 196 
47 203 
47 216 
47 230 
47 233 
47 247 
48 133 
48 134 
48 150 
48 159 
48 169 
48 185 
48 190 
48 208 
48 215 
48 228 
48 242 
48 247 
49 124 
49 144 
49 145 
49 162 
49 171 
49 181 
49 197 
49 202 
49 220 
49 227 
49 240 
49 247 
50 125 
50 142 
50 146 
50 156 
50 174 
50 183 
50 193 
50 209 
50 214 
50 232 
50 239 
50 247 
51 126 
51 141 
51 154 
51 158 
51 167 
51 186 
51 195 
51 205 
51 221 
51 226 
51 234 
51 247 
52 127 
52 136 
52 153 
52 166 
52 170 
52 178 
52 198 
52 207 
52 217 
52 223 
52 238 
52 247 
53 128 
53 140 
53 148 
53 165 
53 168 
53 182 
53 189 
53 210 
53 219 
53 229 
53 235 
53 247 
54 129 
54 137 
54 152 
54 160 
54 177 
54 180 
54 194 
54 200 
54 212 
54 231 
54 241 
54 247 
55 130 
55 143 
55 149 
55 164 
55 172 
55 179 
55 192 
55 206 
55 211 
55 224 
55 243 
55 247 
56 123 
56 143 
56 155 
56 157 
56 169 
56 181 
56 193 
56 205 
56 217 
56 229 
56 241 
56 248 
57 130 
57 135 
57 148 
57 162 
57 167 
57 180 
57 199 
57 209 
57 215 
57 230 
57 238 
57 248 
58 131 
58 140 
58 147 
58 160 
58 174 
58 178 
58 192 
58 201 
58 221 
58 227 
58 242 
58 248 
59 132 
59 144 
59 152 
59 159 
59 172 
59 186 
59 189 
59 204 
59 213 
59 223 
59 239 
59 248 
60 133 
60 141 
60 146 
60 164 
60 171 
60 184 
60 198 
60 200 
60 216 
60 225 
60 235 
60 248 
61 124 
61 137 
61 153 
61 158 
61 176 
61 183 
61 196 
61 210 
61 211 
61 228 
61 237 
61 248 
62 125 
62 139 
62 149 
62 165 
62 170 
62 188 
62 195 
62 208 
62 212 
62 222 
62 240 
62 248 
63 126 
63 142 
63 151 
63 161 
63 177 
63 182 
63 190 
63 207 
63 220 
63 224 
63 233 
63 248 
64 127 
64 134 
64 154 
64 163 
64 173 
64 179 
64 194 
64 202 
64 219 
64 232 
64 236 
64 248 
65 128 
65 138 
65 145 
65 166 
65 175 
65 185 
65 191 
65 206 
65 214 
65 231 
65 234 
65 248 
66 129 
66 136 
66 150 
66 156 
66 168 
66 187 
66 197 
66 203 
66 218 
66 226 
66 243 
66 248 
67 123 
67 136 
67 148 
67 160 
67 172 
67 184 
67 196 
67 208 
67 220 
67 232 
67 234 
67 249 
68 129 
68 135 
68 154 
68 164 
68 170 
68 185 
68 193 
68 210 
68 213 
68 227 
68 233 
68 249 
69 130 
69 134 
69 147 
69 166 
69 176 
69 182 
69 197 
69 205 
69 212 
69 225 
69 239 
69 249 
70 131 
70 141 
70 145 
70 159 
70 168 
70 188 
70 194 
70 209 
70 217 
70 224 
70 237 
70 249 
71 132 
71 139 
71 153 
71 156 
71 171 
71 180 
71 190 
71 206 
71 221 
71 229 
71 236 
71 249 
72 133 
72 138 
72 151 
72 165 
72 167 
72 183 
72 192 
72 202 
72 218 
72 223 
72 241 
72 249 
73 124 
73 143 
73 150 
73 163 
73 177 
73 178 
73 195 
73 204 
73 214 
73 230 
73 235 
73 249 
74 125 
74 137 
74 155 
74 162 
74 175 
74 179 
74 189 
74 207 
74 216 
74 226 
74 242 
74 249 
75 126 
75 144 
75 149 
75 157 
75 174 
75 187 
75 191 
75 200 
75 219 
75 228 
75 238 
75 249 
76 127 
76 140 
76 146 
76 161 
76 169 
76 186 
76 199 
76 203 
76 211 
76 231 
76 240 
76 249 
77 128 
77 142 
77 152 
77 158 
77 173 
77 181 
77 198 
77 201 
77 215 
77 222 
77 243 
77 249 
78 123 
78 142 
78 154 
78 166 
78 168 
78 180 
78 192 
78 204 
78 216 
78 228 
78 240 
78 250 
79 128 
79 135 
79 149 
79 156 
79 177 
79 186 
79 196 
79 202 
79 217 
79 225 
79 242 
79 250 
80 129 
80 144 
80 147 
80 161 
80 167 
80 179 
80 198 
80 208 
80 214 
80 229 
80 237 
80 250 
81 130 
81 139 
81 146 
81 159 
81 173 
81 178 
81 191 
81 210 
81 220 
81 226 
81 241 
81 250 
82 131 
82 143 
82 151 
82 158 
82 171 
82 185 
82 189 
82 203 
82 212 
82 232 
82 238 
82 250 
83 132 
83 140 
83 155 
83 163 
83 170 
83 183 
83 197 
83 200 
83 215 
83 224 
83 234 
83 250 
84 133 
84 136 
84 152 
84 157 
84 175 
84 182 
84 195 
84 209 
84 211 
84 227 
84 236 
84 250 
85 124 
85 138 
85 148 
85 164 
85 169 
85 187 
85 194 
85 207 
85 221 
85 222 
85 239 
85 250 
86 125 
86 141 
86 150 
86 160 
86 176 
86 181 
86 199 
86 206 
86 219 
86 223 
86 233 
86 250 
87 126 
87 134 
87 153 
87 162 
87 172 
87 188 
87 193 
87 201 
87 218 
87 231 
87 235 
87 250 
88 127 
88 137 
88 145 
88 165 
88 174 
88 184 
88 190 
88 205 
88 213 
88 230 
88 243 
88 250 
89 123 
89 137 
89 149 
89 161 
89 173 
89 185 
89 197 
89 209 
89 221 
89 223 
89 235 
89 251 
90 127 
90 135 
90 150 
90 158 
90 175 
90 188 
90 192 
90 200 
90 220 
90 229 
90 239 
90 251 
91 128 
91 141 
91 147 
91 162 
91 170 
91 187 
91 190 
91 204 
91 211 
91 232 
91 241 
91 251 
92 129 
92 143 
92 153 
92 159 
92 174 
92 182 
92 199 
92 202 
92 216 
92 222 
92 234 
92 251 
93 130 
93 136 
93 155 
93 165 
93 171 
93 186 
93 194 
93 201 
93 214 
93 228 
93 233 
93 251 
94 131 
94 134 
94 148 
94 157 
94 177 
94 183 
94 198 
94 206 
94 213 
94 226 
94 240 
94 251 
95 132 
95 142 
95 145 
95 160 
95 169 
95 179 
95 195 
95 210 
95 218 
95 225 
95 238 
95 251 
96 133 
96 140 
96 154 
96 156 
96 172 
96 181 
96 191 
96 207 
96 212 
96 230 
96 237 
96 251 
97 124 
97 139 
97 152 
97 166 
97 167 
97 184 
97 193 
97 203 
97 219 
97 224 
97 242 
97 251 
98 125 
98 144 
98 151 
98 164 
98 168 
98 178 
98 196 
98 205 
98 215 
98 231 
98 236 
98 251 
99 126 
99 138 
99 146 
99 163 
99 176 
99 180 
99 189 
99 208 
99 217 
99 227 
99 243 
99 251 
100 123 
100 138 
100 150 
100 162 
100 174 
100 186 
100 198 
100 210 
100 212 
100 224 
100 236 
100 252 
101 126 
101 135 
101 152 
101 165 
101 169 
101 178 
101 197 
101 206 
101 216 
101 232 
101 237 
101 252 
102 127 
102 139 
102 147 
102 164 
102 177 
102 181 
102 189 
102 209 
102 218 
102 228 
102 234 
102 252 
103 128 
103 136 
103 151 
103 159 
103 176 
103 179 
103 193 
103 200 
103 221 
103 230 
103 240 
103 252 
104 129 
104 142 
104 148 
104 163 
104 171 
104 188 
104 191 
104 205 
104 211 
104 223 
104 242 
104 252 
105 130 
105 144 
105 154 
105 160 
105 175 
105 183 
105 190 
105 203 
105 217 
105 222 
105 235 
105 252 
106 131 
106 137 
106 146 
106 166 
106 172 
106 187 
106 195 
106 202 
106 215 
106 229 
106 233 
106 252 
107 132 
107 134 
107 149 
107 158 
107 168 
107 184 
107 199 
107 207 
107 214 
107 227 
107 241 
107 252 
108 133 
108 143 
108 145 
108 161 
108 170 
108 180 
108 196 
108 201 
108 219 
108 226 
108 239 
108 252 
109 124 
109 141 
109 155 
109 156 
109 173 
109 182 
109 192 
109 208 
109 213 
109 231 
109 238 
109 252 
110 125 
110 140 
110 153 
110 157 
110 167 
110 185 
110 194 
110 204 
110 220 
110 225 
110 243 
110 252 
111 123 
111 140 
111 152 
111 164 
111 176 
111 188 
111 190 
111 202 
111 214 
111 226 
111 238 
111 253 
112 125 
112 135 
112 145 
112 163 
112 172 
112 182 
112 198 
112 203 
112 221 
112 228 
112 241 
112 253 
113 126 
113 143 
113 147 
113 156 
113 175 
113 184 
113 194 
113 210 
113 215 
113 223 
113 240 
113 253 
114 127 
114 142 
114 155 
114 159 
114 167 
114 187 
114 196 
114 206 
114 212 
114 227 
114 235 
114 253 
115 128 
115 137 
115 154 
115 157 
115 171 
115 178 
115 199 
115 208 
115 218 
115 224 
115 239 
115 253 
116 129 
116 141 
116 149 
116 166 
116 169 
116 183 
116 189 
116 201 
116 220 
116 230 
116 236 
116 253 
117 130 
117 138 
117 153 
117 161 
117 168 
117 181 
117 195 
117 200 
117 213 
117 232 
117 242 
117 253 
118 131 
118 144 
118 150 
118 165 
118 173 
118 180 
118 193 
118 207 
118 211 
118 225 
118 234 
118 253 
119 132 
119 136 
119 146 
119 162 
119 177 
119 185 
119 192 
119 205 
119 219 
119 222 
119 237 
119 253 
120 133 
120 139 
120 148 
120 158 
120 174 
120 179 
120 197 
120 204 
120 217 
120 231 
120 233 
120 253 
121 124 
121 134 
121 151 
121 160 
121 170 
121 186 
121 191 
121 209 
121 216 
121 229 
121 243 
121 253 
